% seed = 6554809

mint = 32;
% maxt = 103;

nActs = 22;
dur = [0,5,6,4,3,3,2,8,10,2,2,9,7,6,2,6,5,4,8,10,1,0];

nSkills = 4;
sreq = [| 0,0,0,0,
	| 3,2,0,0,
	| 2,0,0,2,
	| 3,2,0,0,
	| 0,0,1,3,
	| 0,2,1,0,
	| 0,3,3,0,
	| 0,0,1,1,
	| 0,0,2,1,
	| 1,0,0,3,
	| 0,0,1,2,
	| 1,0,0,3,
	| 0,3,0,2,
	| 1,0,3,0,
	| 0,0,2,1,
	| 0,3,1,0,
	| 0,3,2,0,
	| 0,2,0,2,
	| 3,3,0,0,
	| 2,0,0,2,
	| 1,1,0,0,
	| 0,0,0,0, |];

nResources = 10;
mastery = [| false,false,false,true,
	| false,true,false,false,
	| false,true,false,false,
	| false,true,false,true,
	| true,true,true,false,
	| true,true,true,false,
	| false,true,true,false,
	| true,false,true,true,
	| false,false,true,false,
	| false,false,false,true, |];

nPrecs = 31;
pred = [1,1,1,2,2,2,3,3,3,4,4,4,5,6,7,8,8,9,10,11,12,13,14,14,15,16,17,18,19,20,21];
succ = [2,3,4,9,14,8,5,6,7,20,10,12,21,8,20,11,13,17,19,19,16,15,18,15,17,19,21,20,22,22,22];

nUnrels = 129;
unpred = [2,2,2,2,2,2,2,2,3,3,3,3,3,3,3,4,4,4,4,4,4,4,4,4,4,4,4,5,5,5,5,5,5,5,5,5,5,5,5,5,5,5,6,6,6,6,6,6,6,6,7,7,7,7,7,7,7,7,7,7,7,7,7,8,8,8,8,8,8,8,9,9,9,9,9,9,9,9,9,9,10,10,10,10,10,10,10,10,10,10,11,11,11,11,11,11,11,11,11,12,12,12,12,12,12,12,13,13,13,13,13,14,14,15,15,15,15,16,16,16,16,17,17,17,18,18,19,19,20];
unsucc = [3,4,5,6,7,10,12,16,4,9,10,12,14,16,18,5,6,7,8,9,11,13,14,15,17,18,21,6,7,8,9,10,11,12,13,14,15,16,17,18,19,20,7,9,10,12,14,16,18,20,8,9,10,11,12,13,14,15,16,17,18,19,21,9,10,12,14,16,18,20,10,11,12,13,14,15,16,18,19,20,11,12,13,14,15,16,17,18,20,21,12,13,14,15,16,17,18,20,21,13,14,15,17,18,20,21,14,16,18,19,20,16,19,16,18,19,20,17,18,20,21,18,19,20,19,21,20,21,21];

USEFUL_RES = [{},
	{2,3,4,5,6,7,8},
	{1,4,5,6,8,10},
	{2,3,4,5,6,7,8},
	{1,4,5,6,7,8,9,10},
	{2,3,4,5,6,7,8,9},
	{2,3,4,5,6,7,8,9},
	{1,4,5,6,7,8,9,10},
	{1,4,5,6,7,8,9,10},
	{1,4,5,6,8,10},
	{1,4,5,6,7,8,9,10},
	{1,4,5,6,8,10},
	{1,2,3,4,5,6,7,8,10},
	{5,6,7,8,9},
	{1,4,5,6,7,8,9,10},
	{2,3,4,5,6,7,8,9},
	{2,3,4,5,6,7,8,9},
	{1,2,3,4,5,6,7,8,10},
	{2,3,4,5,6,7,8},
	{1,4,5,6,8,10},
	{2,3,4,5,6,7,8},
	{}];

POTENTIAL_ACT = [{3,5,8,9,10,11,12,13,15,18,20},
	{2,4,6,7,13,16,17,18,19,21},
	{2,4,6,7,13,16,17,18,19,21},
	{2,3,4,5,6,7,8,9,10,11,12,13,15,16,17,18,19,20,21},
	{2,3,4,5,6,7,8,9,10,11,12,13,14,15,16,17,18,19,20,21},
	{2,3,4,5,6,7,8,9,10,11,12,13,14,15,16,17,18,19,20,21},
	{2,4,5,6,7,8,9,11,13,14,15,16,17,18,19,21},
	{2,3,4,5,6,7,8,9,10,11,12,13,14,15,16,17,18,19,20,21},
	{5,6,7,8,9,11,14,15,16,17},
	{3,5,8,9,10,11,12,13,15,18,20}];
